Section 2 Modelling the Task Allocation Problem/TAP3.param
language ESSENCE' 1.0

letting NumberOfPeople be 3
letting NumberOfTask be 2
letting Deadline be 3
letting Duration be [1,1]
letting Bids be [[true,false],[true,false],[true,false]]


