Section 2 Modelling the Task Allocation Problem/TAP3.param.solution
language ESSENCE' 1.0
$ Minion SolverNodes: 5
$ Minion SolverTotalTime: 0.000743
$ Minion SolverTimeOut: 0
$ Savile Row TotalTime: 0.336
letting Allocation be [[false, false], 
[false, false], 
[true, true]]
letting cost be 1
